n_shifts = 76;
n_employees = 21;
n_expertises = 3;

% Employee parameters
contract = [112, 72, 64, 96, 96, 128, 48, 96, 48, 24, 112, 96, 112, 80, 128, 96, 4, 96, 96, 0, 0];
employee_expertises = [{2, 1}, {2, 1}, {3, 2, 1}, {2, 1}, {2, 1}, {3, 2, 1}, {3, 2, 1}, {2, 1}, {2, 1}, {2, 1}, {2, 1}, {2, 1}, {2, 1}, {2, 1}, {3, 2, 1}, {2, 1}, {2, 1}, {3, 2, 1}, {3, 2, 1}, {2, 1}, {2, 1}];

% Shift parameters
start_time = [28, 28, 28, 28, 28, 28, 28, 28, 28, 28, 28, 28, 28, 28, 28, 28, 28, 28, 28, 28, 28, 28, 28, 28, 30, 30, 30, 30, 30, 30, 30, 30, 30, 30, 30, 30, 30, 30, 30, 30, 30, 30, 30, 30, 30, 32, 32, 32, 54, 54, 54, 54, 54, 54, 54, 72, 72, 72, 72, 72, 72, 72, 74, 74, 74, 74, 74, 74, 74, 76, 76, 76, 76, 76, 76, 76];
stop_time = [44, 52, 52, 52, 52, 52, 52, 52, 52, 52, 52, 52, 52, 52, 52, 52, 52, 52, 52, 52, 52, 52, 52, 52, 42, 42, 46, 50, 50, 50, 50, 50, 50, 50, 50, 50, 50, 50, 50, 50, 50, 50, 50, 50, 68, 40, 44, 44, 72, 72, 72, 72, 72, 72, 72, 92, 92, 92, 92, 92, 92, 92, 92, 92, 92, 92, 92, 92, 92, 92, 92, 92, 92, 92, 92, 92];
req_expertise = [3, 2, 2, 2, 2, 2, 2, 2, 2, 2, 2, 2, 2, 2, 2, 2, 2, 2, 2, 2, 2, 2, 2, 2, 2, 2, 2, 2, 2, 2, 2, 2, 2, 2, 2, 2, 2, 2, 2, 2, 2, 2, 2, 2, 3, 3, 3, 3, 2, 2, 2, 2, 2, 2, 2, 2, 2, 2, 2, 2, 2, 2, 2, 2, 2, 2, 2, 2, 2, 1, 1, 1, 1, 1, 1, 1];

time_units_per_hour = 4;
